1117,723
847,-107
681,316
787,512
709,415
597,490
658,554
803,646
850,237
201,406
838,-79
387,555
548,474
981,406
681,376
705,423
681,766
667,318
436,887
998,-30
765,322
580,93
436,887
597,939
641,326
787,460
339,295
681,76
681,256
765,322
633,441
1041,766
